(define-fun epsilon () (_ FloatingPoint 8 24) ((_ to_fp 8 24) RTN 1.7984))
(define-fun const0 () (_ FloatingPoint 8 24) ((_ to_fp 8 24) RTN 0.125000000000000000000000000000000000000000000000000000000000000000000000000000000000000000000000000000000000000000000000000000000000000000000000000000000000000000000))
(declare-fun a () (_ FloatingPoint 8 24))
(assert (fp.isNormal a))
(declare-fun b () (_ FloatingPoint 8 24))
(assert (fp.isNormal b))
(define-fun arithexp3 () (_ FloatingPoint 8 24) (fp.sub RNE a b))
(assert (fp.isNormal arithexp3))
(define-fun arithexp4 () (_ FloatingPoint 8 24) (fp.add RNE a b))
(assert (fp.isNormal arithexp4))
(define-fun arithexp1 () (_ FloatingPoint 8 24) (fp.mul RNE arithexp3 arithexp4))
(assert (fp.isNormal arithexp1))
(define-fun arithexp5 () (_ FloatingPoint 8 24) (fp.mul RNE a a))
(assert (fp.isNormal arithexp5))
(define-fun arithexp6 () (_ FloatingPoint 8 24) (fp.mul RNE b b))
(assert (fp.isNormal arithexp6))
(define-fun arithexp2 () (_ FloatingPoint 8 24) (fp.sub RNE arithexp5 arithexp6))
(assert (fp.isNormal arithexp2))
(define-fun arithexp () (_ FloatingPoint 8 24) (fp.sub RNE arithexp1 arithexp2))
(assert (fp.isNormal arithexp))
(define-fun prop () Bool (fp.gt arithexp epsilon))
(define-fun const1 () (_ FloatingPoint 8 24) ((_ to_fp 8 24) RTN 1.000000000000000000000000000000000000000000000000000000000000000000000000000000000000000000000000000000000000000000000000000000000000000000000000000000000000000000000))
(define-fun prop1 () Bool (fp.geq a const1))
(define-fun const2 () (_ FloatingPoint 8 24) ((_ to_fp 8 24) RTN 5000.000000000000000000000000000000000000000000000000000000000000000000000000000000000000000000000000000000000000000000000000000000000000000000000000000000000000000000000))
(define-fun prop2 () Bool (fp.leq a const2))
(define-fun propexp2 () Bool (and prop1 prop2))
(define-fun prop3 () Bool (fp.geq b const1))
(define-fun const3 () (_ FloatingPoint 8 24) ((_ to_fp 8 24) RTN 400.000000000000000000000000000000000000000000000000000000000000000000000000000000000000000000000000000000000000000000000000000000000000000000000000000000000000000000000))
(define-fun prop4 () Bool (fp.leq b const3))
(define-fun propexp3 () Bool (and prop3 prop4))
(define-fun propexp1 () Bool (and propexp2 propexp3))
(define-fun propexp () Bool (and prop propexp1))
(assert propexp)
(check-sat)
;(get-model)
(exit)